p cnf 9 27
9 5 6 -1 0
2 4 -9 0
9 -6 -3 7 0
1 3 9 6 0
2 -9 0
-6 -4 -1 0
9 0
-8 2 -1 -9 0
-7 -3 0
8 1 2 -7 0
-8 2 4 5 0
-7 0
-8 -6 -2 0
-2 0
1 2 -7 -2 0
9 2 3 0
8 9 -3 -9 0
8 -3 3 5 0
-2 0
-7 3 0
2 5 -1 7 0
-7 3 0
-7 1 -9 0
-2 -1 -9 0
9 3 4 -7 0
2 -6 5 6 0
9 -5 -7 7 0
